<number of tasks>
50

<cycle time>
1000

<order strength>
0.196


<task times>
1 156
2 337
3 322
4 202
5 464
6 147
7 96
8 146
9 339
10 177
11 280
12 188
13 232
14 82
15 215
16 364
17 551
18 129
19 51
20 132
21 399
22 40
23 607
24 114
25 66
26 56
27 213
28 236
29 495
30 192
31 118
32 154
33 82
34 303
35 169
36 67
37 213
38 31
39 439
40 169
41 81
42 221
43 35
44 408
45 44
46 267
47 174
48 263
49 373
50 230

<precedence relations>
1,8
2,6
2,9
3,7
4,46
6,10
7,11
8,12
9,13
9,14
9,15
9,16
10,17
11,19
12,18
13,20
14,21
14,22
14,45
15,23
15,24
16,22
17,28
18,26
19,25
19,46
20,27
20,48
21,29
21,35
24,29
25,31
26,30
27,32
28,33
28,35
28,44
29,34
30,37
31,36
32,38
33,39
34,40
35,41
36,42
37,44
38,45
39,43
40,44
41,46
41,47
41,48
41,49
41,50

<end>
